presolving:
(round 1, fast)       0 del vars, 28260 del conss, 0 add conss, 28260 chg bounds, 0 chg sides, 28260 chg coeffs, 0 upgd conss, 0 impls, 28260 clqs
   (1.0s) running MILP presolver
   (1.2s) MILP presolver found nothing
(round 2, exhaustive) 0 del vars, 28260 del conss, 0 add conss, 28260 chg bounds, 0 chg sides, 28260 chg coeffs, 56857 upgd conss, 0 impls, 28260 clqs
(round 3, medium)     28260 del vars, 56700 del conss, 0 add conss, 28260 chg bounds, 0 chg sides, 28260 chg coeffs, 56857 upgd conss, 28260 impls, 0 clqs
(round 4, fast)       28260 del vars, 56856 del conss, 0 add conss, 28260 chg bounds, 0 chg sides, 28260 chg coeffs, 56857 upgd conss, 28260 impls, 0 clqs
   (1.9s) running MILP presolver
   (2.0s) MILP presolver found nothing
   (2.4s) probing: 51/157 (32.5%) - 0 fixings, 0 aggregations, 0 implications, 0 bound changes
   (2.4s) probing aborted: 50/50 successive totally useless probings
   (2.6s) symmetry computation started: requiring (bin +, int -, cont +), (fixed: bin -, int +, cont -)
   (2.7s) no symmetry present
presolving (5 rounds: 5 fast, 3 medium, 2 exhaustive):
 28260 deleted vars, 56856 deleted constraints, 0 added constraints, 28260 tightened bounds, 0 added holes, 0 changed sides, 28260 changed coefficients
 28260 implications, 0 cliques
presolved problem has 28417 variables (157 bin, 0 int, 0 impl, 28260 cont) and 28598 constraints
  28260 constraints of type <varbound>
    337 constraints of type <linear>
      1 constraints of type <logicor>
Presolving Time: 2.37

 time | node  | left  |LP iter|LP it/n|mem/heur|mdpt |vars |cons |rows |cuts |sepa|confs|strbr|  dualbound   | primalbound  |  gap   | compl. 
p 2.9s|     1 |     0 |   180 |     - |   locks|   0 |  28k|  28k|  28k|   0 |  0 |   0 |   0 | 0.000000e+00 | 1.553100e+05 |    Inf | unknown
i 3.0s|     1 |     0 |   180 |     - |  oneopt|   0 |  28k|  28k|  28k|   0 |  0 |   0 |   0 | 0.000000e+00 | 1.272370e+05 |    Inf | unknown
  4.9s|     1 |     0 |  4008 |     - |   410M |   0 |  28k|  28k|  28k|   0 |  0 |   0 |   0 | 8.170749e+04 | 1.272370e+05 |  55.72%| unknown
r 4.9s|     1 |     0 |  4008 |     - |simplero|   0 |  28k|  28k|  28k|   0 |  0 |   0 |   0 | 8.170749e+04 | 9.496696e+04 |  16.23%| unknown
  5.4s|     1 |     0 |  4057 |     - |   420M |   0 |  28k|  28k|  28k|   1 |  1 |   0 |   0 | 8.171147e+04 | 9.496696e+04 |  16.22%| unknown
r 5.4s|     1 |     0 |  4057 |     - |simplero|   0 |  28k|  28k|  28k|   1 |  1 |   0 |   0 | 8.171147e+04 | 9.333108e+04 |  14.22%| unknown
r 5.5s|     1 |     0 |  4057 |     - |shifting|   0 |  28k|  28k|  28k|   1 |  1 |   0 |   0 | 8.171147e+04 | 9.264357e+04 |  13.38%| unknown
r 6.3s|     1 |     0 |  5206 |     - |intshift|   0 |  28k|  28k|  28k|   1 |  3 |   0 |   0 | 8.171147e+04 | 8.919600e+04 |   9.16%| unknown
d 8.7s|     1 |     0 |  7609 |     - |farkasdi|   0 |  28k|  28k|  28k|   0 |  3 |   0 |   0 | 8.171147e+04 | 8.913950e+04 |   9.09%| unknown
d 8.8s|     1 |     0 |  7637 |     - |farkasdi|   0 |  28k|  28k|  28k|   0 |  3 |   0 |   0 | 8.171147e+04 | 8.792473e+04 |   7.60%| unknown
d 9.1s|     1 |     0 |  7939 |     - |farkasdi|   0 |  28k|  28k|  28k|   0 |  3 |   0 |   0 | 8.171147e+04 | 8.634950e+04 |   5.68%| unknown
d 9.8s|     1 |     0 |  8575 |     - |farkasdi|   0 |  28k|  28k|  28k|   0 |  3 |   0 |   0 | 8.171147e+04 | 8.619700e+04 |   5.49%| unknown
d10.0s|     1 |     0 |  8698 |     - |farkasdi|   0 |  28k|  28k|  28k|   0 |  3 |   0 |   0 | 8.171147e+04 | 8.453200e+04 |   3.45%| unknown
d10.1s|     1 |     0 |  8809 |     - |farkasdi|   0 |  28k|  28k|  28k|   0 |  3 |   0 |   0 | 8.171147e+04 | 8.424033e+04 |   3.09%| unknown
d10.2s|     1 |     0 |  8919 |     - |farkasdi|   0 |  28k|  28k|  28k|   0 |  3 |   0 |   0 | 8.171147e+04 | 8.414050e+04 |   2.97%| unknown
 time | node  | left  |LP iter|LP it/n|mem/heur|mdpt |vars |cons |rows |cuts |sepa|confs|strbr|  dualbound   | primalbound  |  gap   | compl. 
d10.3s|     1 |     0 |  9009 |     - |farkasdi|   0 |  28k|  28k|  28k|   0 |  3 |   0 |   0 | 8.171147e+04 | 8.256400e+04 |   1.04%| unknown
L19.9s|     1 |     0 |  9009 |     - |    rens|   0 |  28k|  28k|  28k|   1 |  3 |   0 |   0 | 8.171147e+04 | 8.211200e+04 |   0.49%| unknown
 20.3s|     1 |     0 |  9009 |     - |   450M |   0 |  28k|  28k|  28k|   1 |  3 |   0 |   0 | 8.171147e+04 | 8.211200e+04 |   0.49%| unknown
 20.4s|     1 |     0 |  9009 |     - |   453M |   0 |  28k|  28k|  28k|   1 |  3 |   0 |   0 | 8.171147e+04 | 8.211200e+04 |   0.49%| unknown
 20.6s|     1 |     0 |  9009 |     - |   453M |   0 |  28k|  28k|  22k|   1 |  4 |   0 |   0 | 8.171147e+04 | 8.211200e+04 |   0.49%| unknown
(run 1, node 1) restarting after 36 global fixings of integer variables

(restart) converted 1 cuts from the global cut pool into linear constraints

presolving:
(round 1, fast)       6516 del vars, 0 del conss, 0 add conss, 0 chg bounds, 0 chg sides, 36 chg coeffs, 0 upgd conss, 28260 impls, 0 clqs
   (21.3s) running MILP presolver
   (21.4s) MILP presolver found nothing
presolving (2 rounds: 2 fast, 1 medium, 1 exhaustive):
 6516 deleted vars, 0 deleted constraints, 0 added constraints, 0 tightened bounds, 0 added holes, 0 changed sides, 36 changed coefficients
 28260 implications, 0 cliques
presolved problem has 21901 variables (121 bin, 0 int, 0 impl, 21780 cont) and 22083 constraints
  21780 constraints of type <varbound>
    302 constraints of type <linear>
      1 constraints of type <logicor>
Presolving Time: 3.07
transformed 32/34 original solutions to the transformed problem space

 time | node  | left  |LP iter|LP it/n|mem/heur|mdpt |vars |cons |rows |cuts |sepa|confs|strbr|  dualbound   | primalbound  |  gap   | compl. 
 23.1s|     1 |     0 | 11934 |     - |   482M |   0 |  21k|  22k|  22k|   0 |  0 |   0 |   0 | 8.171147e+04 | 8.211200e+04 |   0.49%| unknown
 23.2s|     1 |     0 | 11934 |     - |   482M |   0 |  21k|  22k|  22k|   0 |  0 |   0 |   0 | 8.171147e+04 | 8.211200e+04 |   0.49%| unknown
 23.4s|     1 |     0 | 11934 |     - |   485M |   0 |  21k|  22k|  21k|   0 |  1 |   0 |   0 | 8.171147e+04 | 8.211200e+04 |   0.49%| unknown
 37.1s|     1 |     2 | 14045 |     - |   528M |   0 |  21k|  21k|  21k|   0 |  3 |8250 |  19 | 8.177694e+04 | 8.211200e+04 |   0.41%| unknown

SCIP Status        : problem is solved [optimal solution found]
Solving Time (sec) : 76.87
Solving Nodes      : 45 (total of 46 nodes in 2 runs)
Primal Bound       : +8.21120000000000e+04 (289 solutions)
Dual Bound         : +8.21120000000000e+04
Gap                : 0.00 %
Solve Status: optimal
Solve Time: 76.91 seconds
Objective Value: 82112.00
